Data path: /scratch/opt/lxu/CFLG/benchmarks/random_A
Instance: r_10_0.3_12.txt
Result path: /scratch/opt/lxu/CFLG/results/random_A
Solver: Gurobi
Time limit: 7200
Formulation: LEFPD
Cover: Small
julia --project=. src/main.jl /scratch/opt/lxu/CFLG/benchmarks/random_A r_10_0.3_12.txt /scratch/opt/lxu/CFLG/results/random_A Gurobi 7200 LEFPD Small
The latest version of Julia in the `release` channel is 1.11.5+0.x64.linux.gnu. You currently have `1.11.4+0.x64.linux.gnu` installed. Run:

  juliaup update

in your terminal shell to install Julia 1.11.5+0.x64.linux.gnu and update the `release` channel to that version.
/scratch/opt/lxu/CFLG/benchmarks/random_A Gurobi 7200.0 /scratch/opt/lxu/CFLG/results/random_A r_10_0.3_12.txt LEFPD Small
/scratch/opt/lxu/CFLG/benchmarks/random_A/r_10_0.3_12.txt

 read graph
data loaded


after absorb:8 10

max_piece:10
problem_graph/original graph: node: 9/10 edge: 11/12 dlt: 0.152625614307883 break_avg_len: 0.6660026806162167 break_max_len: 1.2728694279731012Set parameter TokenServer to value "solice01.zib.de"
Set parameter Threads to value 1
Set parameter OutputFlag to value 1
Gurobi Optimizer version 12.0.1 build v12.0.1rc0 (linux64 - "Debian GNU/Linux 12 (bookworm)")

CPU model: Intel(R) Xeon(R) Gold 5122 CPU @ 3.60GHz, instruction set [SSE2|AVX|AVX2|AVX512]
Thread count: 8 physical cores, 16 logical processors, using up to 1 threads

Non-default parameters:
Threads  1

Optimize a model with 20 rows, 33 columns and 55 nonzeros
Model fingerprint: 0x99aae91e
Coefficient statistics:
  Matrix range     [1e+00, 1e+00]
  Objective range  [1e+00, 1e+00]
  Bounds range     [1e+00, 1e+00]
  RHS range        [1e+00, 1e+00]
Presolve removed 20 rows and 33 columns
Presolve time: 0.00s
Presolve: All rows and columns removed
Iteration    Objective       Primal Inf.    Dual Inf.      Time
       0    1.0000000e+00   0.000000e+00   0.000000e+00      0s

Solved in 0 iterations and 0.00 seconds (0.00 work units)
Optimal objective  1.000000000e+00

User-callback calls 36, time in user-callback 0.00 sec
elapsed CPU time: 0.982532 seconds
Set parameter TokenServer to value "solice01.zib.de"
Set parameter Threads to value 1
Set parameter OutputFlag to value 1
Set parameter MIPGap to value 0.0001
Set parameter MIPGapAbs to value 0.999998
Set parameter TimeLimit to value 7199.017468

 more cuts:falsefalse
0 1
formulation:LEFPD9 2 1

 model loaded

Gurobi Optimizer version 12.0.1 build v12.0.1rc0 (linux64 - "Debian GNU/Linux 12 (bookworm)")

CPU model: Intel(R) Xeon(R) Gold 5122 CPU @ 3.60GHz, instruction set [SSE2|AVX|AVX2|AVX512]
Thread count: 8 physical cores, 16 logical processors, using up to 1 threads

Non-default parameters:
TimeLimit  7199.017468
MIPGapAbs  0.999998
Threads  1

Optimize a model with 206 rows, 143 columns and 462 nonzeros
Model fingerprint: 0xe8027a98
Variable types: 63 continuous, 80 integer (80 binary)
Coefficient statistics:
  Matrix range     [2e-07, 1e+00]
  Objective range  [1e+00, 1e+00]
  Bounds range     [1e-01, 1e+00]
  RHS range        [6e-02, 1e+00]
Found heuristic solution: objective 29.0000000
Presolve removed 110 rows and 44 columns
Presolve time: 0.00s
Presolved: 96 rows, 99 columns, 315 nonzeros
Variable types: 58 continuous, 41 integer (41 binary)

Root relaxation: objective 1.966602e+01, 74 iterations, 0.00 seconds (0.00 work units)

    Nodes    |    Current Node    |     Objective Bounds      |     Work
 Expl Unexpl |  Obj  Depth IntInf | Incumbent    BestBd   Gap | It/Node Time

     0     0   19.66602    0   21   29.00000   19.66602  32.2%     -    0s
H    0     0                      25.0000000   19.66602  21.3%     -    0s
     0     0   20.81492    0   31   25.00000   20.81492  16.7%     -    0s
H    0     0                      24.0000000   20.84672  13.1%     -    0s
     0     0   20.88725    0   28   24.00000   20.88725  13.0%     -    0s
     0     0   21.01151    0   29   24.00000   21.01151  12.5%     -    0s
     0     0   21.03579    0   29   24.00000   21.03579  12.4%     -    0s
     0     0   21.03579    0   29   24.00000   21.03579  12.4%     -    0s
     0     0   21.03579    0   29   24.00000   21.03579  12.4%     -    0s
     0     0   21.03579    0   29   24.00000   21.03579  12.4%     -    0s
     0     0   21.07013    0   28   24.00000   21.07013  12.2%     -    0s
     0     0   21.07770    0   28   24.00000   21.07770  12.2%     -    0s
     0     0   21.18429    0   31   24.00000   21.18429  11.7%     -    0s
     0     0   21.28690    0   31   24.00000   21.28690  11.3%     -    0s
     0     0   21.30146    0   31   24.00000   21.30146  11.2%     -    0s
     0     0   21.37857    0   31   24.00000   21.37857  10.9%     -    0s
     0     0   21.39229    0   30   24.00000   21.39229  10.9%     -    0s
     0     0   21.39229    0   31   24.00000   21.39229  10.9%     -    0s
     0     0   21.41463    0   31   24.00000   21.41463  10.8%     -    0s
     0     0   21.42263    0   32   24.00000   21.42263  10.7%     -    0s
     0     0   21.42263    0   34   24.00000   21.42263  10.7%     -    0s
     0     0   21.52177    0   28   24.00000   21.52177  10.3%     -    0s
     0     0   21.52833    0   27   24.00000   21.52833  10.3%     -    0s
     0     0   21.53005    0   26   24.00000   21.53005  10.3%     -    0s
     0     0   21.53051    0   25   24.00000   21.53051  10.3%     -    0s
     0     0   21.53878    0   25   24.00000   21.53878  10.3%     -    0s
     0     0   21.53878    0   25   24.00000   21.53878  10.3%     -    0s
     0     2   21.55196    0   20   24.00000   21.55196  10.2%     -    0s

Cutting planes:
  Gomory: 5
  Cover: 28
  Implied bound: 23
  Clique: 1
  MIR: 31
  Flow cover: 13
  Inf proof: 1
  RLT: 10

Explored 288 nodes (3561 simplex iterations) in 0.15 seconds (0.06 work units)
Thread count was 1 (of 16 available processors)

Solution count 4: 24 24 25 29 

Optimal solution found (tolerance 1.00e-04)
Best objective 2.400000000000e+01, best bound 2.400000000000e+01, gap 0.0000%

User-callback calls 1206, time in user-callback 0.00 sec

 sepatime0 0 0
24.0Stat(MathOptInterface.OPTIMAL, 24.0, 24.0, 0.0, 0.0, 0.982532, 0.14799714088439941, 288, Main.CFLG.LEFPD, "", #undef)
